self-compositions/words_1/words_819_SAT.qaiger
aag 60 24 0 1 36
46
4
18
38
6
32
10
40
12
8
44
42
26
20
22
48
16
24
34
14
2
28
30
36
121
50 29 13
52 51 45
54 31 15
56 54 47
58 55 46
60 59 57
62 61 53
64 25 9
66 64 41
68 65 40
70 69 67
72 19 3
74 73 71
76 23 7
78 76 38
80 77 39
82 81 79
84 21 5
86 85 37
88 84 36
90 89 87
92 90 82
94 92 74
96 50 44
98 33 17
100 98 49
102 99 48
104 103 101
106 105 97
108 27 11
110 108 43
112 109 42
114 113 111
116 115 106
118 116 94
120 118 62
i0 1 x[6]
i1 2 y[1]
i2 2 z[0]
i3 1 x[2]
i4 2 y[2]
i5 2 z[7]
i6 2 y[4]
i7 1 x[3]
i8 2 y[5]
i9 2 y[3]
i10 1 x[5]
i11 1 x[4]
i12 2 z[4]
i13 2 z[1]
i14 2 z[2]
i15 1 x[7]
i16 2 y[7]
i17 2 z[3]
i18 1 x[0]
i19 2 y[6]
i20 2 y[0]
i21 2 z[5]
i22 2 z[6]
i23 1 x[1]
o0 bool[0]
c
simplified
  !=
    or
      2 y
      xor
        2 z
        2 y
    or
      1
      1 x
