self-compositions/words_1/words_819_SAT.qaiger.qdimacs
p cnf 60 109
a 17 18 19 20 21 22 23 24 0
e 1 2 3 4 5 6 7 8 9 10 11 12 13 14 15 16 25 26 27 28 29 30 31 32 33 34 35 36 37 38 39 40 41 42 43 44 45 46 47 48 49 50 51 52 53 54 55 56 57 58 59 60 0
14 6 25 0
-14 -25 0
-6 -25 0
25 22 26 0
-25 -26 0
-22 -26 0
15 7 27 0
-15 -27 0
-7 -27 0
-27 23 28 0
27 -28 0
-23 -28 0
27 -23 29 0
-27 -29 0
23 -29 0
29 28 30 0
-29 -30 0
-28 -30 0
30 26 31 0
-30 -31 0
-26 -31 0
12 4 32 0
-12 -32 0
-4 -32 0
-32 20 33 0
32 -33 0
-20 -33 0
32 -20 34 0
-32 -34 0
20 -34 0
34 33 35 0
-34 -35 0
-33 -35 0
9 1 36 0
-9 -36 0
-1 -36 0
36 35 37 0
-36 -37 0
-35 -37 0
11 3 38 0
-11 -38 0
-3 -38 0
-38 -19 39 0
38 -39 0
19 -39 0
38 19 40 0
-38 -40 0
-19 -40 0
40 39 41 0
-40 -41 0
-39 -41 0
10 2 42 0
-10 -42 0
-2 -42 0
42 18 43 0
-42 -43 0
-18 -43 0
-42 -18 44 0
42 -44 0
18 -44 0
44 43 45 0
-44 -45 0
-43 -45 0
-45 -41 46 0
45 -46 0
41 -46 0
-46 -37 47 0
46 -47 0
37 -47 0
-25 -22 48 0
25 -48 0
22 -48 0
16 8 49 0
-16 -49 0
-8 -49 0
-49 24 50 0
49 -50 0
-24 -50 0
49 -24 51 0
-49 -51 0
24 -51 0
51 50 52 0
-51 -52 0
-50 -52 0
52 48 53 0
-52 -53 0
-48 -53 0
13 5 54 0
-13 -54 0
-5 -54 0
-54 21 55 0
54 -55 0
-21 -55 0
54 -21 56 0
-54 -56 0
21 -56 0
56 55 57 0
-56 -57 0
-55 -57 0
57 -53 58 0
-57 -58 0
53 -58 0
-58 -47 59 0
58 -59 0
47 -59 0
-59 -31 60 0
59 -60 0
31 -60 0
-60 0
